50
547 125 281 431 17 499 953 429 835 961 21 14 437 960 455 798 672 46 466 644 160 133 668 301 691 278 77 375 788 349 546 774 278 867 42 451 242 171 900 167 781 472 946 886 17 952 559 727 106 719 
592 218 300 338 77 532 879 491 742 978 76 108 370 904 490 795 756 24 498 586 247 106 651 303 777 346 111 339 814 426 539 703 336 965 43 361 207 109 930 168 851 411 974 903 16 951 501 631 84 694 
11888
